c 1 2 3 4 5 6 7 8 9 10 94 11 95 12 99 59 25 60 26 61 27 62 28 63 29 64 30 65 31 66 32 67 33 68 34 69 35 70 36 13 14 15 16 17 18 19 20 21 22 23 24 37 38 39 40 41 42 43 44 45 46 47 48 49 50 51 52 53 54 55 56 57 58 71 72 73 74 75 76 77 78 79 80 81 82 83 84 85 86 87 88 89 90 91 92 93 96 97 98 100 
p wcnf 323 100 22
22 -1 13 
22 -2 14 
22 -3 15 
22 -4 16 
22 -5 17 
22 -6 18 
22 -7 19 
22 -8 20 
22 -9 21 
22 -10 22 
22 -11 23 
22 -12 24 
22 -25 1 
22 -26 1 
22 -27 1 
22 -28 1 
22 -29 1 
22 -30 1 
22 -31 1 
22 -32 1 
22 -33 1 
22 -34 1 
22 -35 1 
22 -36 1 
22 -25 37 
22 -25 38 
22 -25 39 
22 -25 40 
22 -25 41 
22 -25 42 
22 -25 43 
22 -25 44 
22 -25 45 
22 -25 46 
22 -25 47 
22 -26 38 
22 -26 39 
22 -26 40 
22 -26 41 
22 -26 42 
22 -26 43 
22 -26 44 
22 -26 45 
22 -26 46 
22 -26 47 
22 -26 48 
22 -27 39 
22 -27 40 
22 -27 41 
22 -27 42 
22 -27 43 
22 -27 44 
22 -27 45 
22 -27 46 
22 -27 47 
22 -27 48 
22 -27 49 
22 -28 40 
22 -28 41 
22 -28 42 
22 -28 43 
22 -28 44 
22 -28 45 
22 -28 46 
22 -28 47 
22 -28 48 
22 -28 49 
22 -28 50 
22 -29 41 
22 -29 42 
22 -29 43 
22 -29 44 
22 -29 45 
22 -29 46 
22 -29 47 
22 -29 48 
22 -29 49 
22 -29 50 
22 -29 51 
22 -30 42 
22 -30 43 
22 -30 44 
22 -30 45 
22 -30 46 
22 -30 47 
22 -30 48 
22 -30 49 
22 -30 50 
22 -30 51 
22 -30 52 
22 -31 43 
22 -31 44 
22 -31 45 
22 -31 46 
22 -31 47 
22 -31 48 
22 -31 49 
22 -31 50 
22 -31 51 
22 -31 52 
22 -31 53 
22 -32 44 
22 -32 45 
22 -32 46 
22 -32 47 
22 -32 48 
22 -32 49 
22 -32 50 
22 -32 51 
22 -32 52 
22 -32 53 
22 -32 54 
22 -33 45 
22 -33 46 
22 -33 47 
22 -33 48 
22 -33 49 
22 -33 50 
22 -33 51 
22 -33 52 
22 -33 53 
22 -33 54 
22 -33 55 
22 -34 46 
22 -34 47 
22 -34 48 
22 -34 49 
22 -34 50 
22 -34 51 
22 -34 52 
22 -34 53 
22 -34 54 
22 -34 55 
22 -34 56 
22 -35 47 
22 -35 48 
22 -35 49 
22 -35 50 
22 -35 51 
22 -35 52 
22 -35 53 
22 -35 54 
22 -35 55 
22 -35 56 
22 -35 57 
22 -36 48 
22 -36 49 
22 -36 50 
22 -36 51 
22 -36 52 
22 -36 53 
22 -36 54 
22 -36 55 
22 -36 56 
22 -36 57 
22 -36 58 
22 -59 1 
22 -60 1 
22 -61 1 
22 -62 1 
22 -63 1 
22 -64 1 
22 -65 1 
22 -66 1 
22 -67 1 
22 -68 1 
22 -69 1 
22 -70 1 
22 -59 71 
22 -59 72 
22 -59 73 
22 -59 74 
22 -59 75 
22 -59 76 
22 -59 77 
22 -59 78 
22 -59 79 
22 -59 80 
22 -59 81 
22 -59 82 
22 -60 72 
22 -60 73 
22 -60 74 
22 -60 75 
22 -60 76 
22 -60 77 
22 -60 78 
22 -60 79 
22 -60 80 
22 -60 81 
22 -60 82 
22 -60 83 
22 -61 73 
22 -61 74 
22 -61 75 
22 -61 76 
22 -61 77 
22 -61 78 
22 -61 79 
22 -61 80 
22 -61 81 
22 -61 82 
22 -61 83 
22 -61 84 
22 -62 74 
22 -62 75 
22 -62 76 
22 -62 77 
22 -62 78 
22 -62 79 
22 -62 80 
22 -62 81 
22 -62 82 
22 -62 83 
22 -62 84 
22 -62 85 
22 -63 75 
22 -63 76 
22 -63 77 
22 -63 78 
22 -63 79 
22 -63 80 
22 -63 81 
22 -63 82 
22 -63 83 
22 -63 84 
22 -63 85 
22 -63 86 
22 -64 76 
22 -64 77 
22 -64 78 
22 -64 79 
22 -64 80 
22 -64 81 
22 -64 82 
22 -64 83 
22 -64 84 
22 -64 85 
22 -64 86 
22 -64 87 
22 -65 77 
22 -65 78 
22 -65 79 
22 -65 80 
22 -65 81 
22 -65 82 
22 -65 83 
22 -65 84 
22 -65 85 
22 -65 86 
22 -65 87 
22 -65 88 
22 -66 78 
22 -66 79 
22 -66 80 
22 -66 81 
22 -66 82 
22 -66 83 
22 -66 84 
22 -66 85 
22 -66 86 
22 -66 87 
22 -66 88 
22 -66 89 
22 -67 79 
22 -67 80 
22 -67 81 
22 -67 82 
22 -67 83 
22 -67 84 
22 -67 85 
22 -67 86 
22 -67 87 
22 -67 88 
22 -67 89 
22 -67 90 
22 -68 80 
22 -68 81 
22 -68 82 
22 -68 83 
22 -68 84 
22 -68 85 
22 -68 86 
22 -68 87 
22 -68 88 
22 -68 89 
22 -68 90 
22 -68 91 
22 -69 81 
22 -69 82 
22 -69 83 
22 -69 84 
22 -69 85 
22 -69 86 
22 -69 87 
22 -69 88 
22 -69 89 
22 -69 90 
22 -69 91 
22 -69 92 
22 -70 82 
22 -70 83 
22 -70 84 
22 -70 85 
22 -70 86 
22 -70 87 
22 -70 88 
22 -70 89 
22 -70 90 
22 -70 91 
22 -70 92 
22 -70 93 
22 -94 25 
22 -95 25 
22 -94 96 
22 -94 97 
22 -95 97 
22 -95 98 
22 -99 59 94 
22 -99 100 
22 25 26 27 28 29 30 31 32 33 34 35 36 59 60 61 62 63 64 65 66 67 68 69 70 
22 25 26 27 28 29 30 31 32 33 34 35 36 59 60 61 62 63 64 65 66 67 68 69 70 94 95 
11 99 
